unsat
(:SPACER-inductive-gen                30
 :SPACER-inductive-gen-weaken-fail    30
 :SPACER-inductive-level              13
 :SPACER-max-depth                    15
 :SPACER-max-query-lvl                15
 :SPACER-non-local-gen                47
 :SPACER-num-active-lemmas            17
 :SPACER-num-cant-abstract            2
 :SPACER-num-ctp-blocked              27
 :SPACER-num-invariants               14
 :SPACER-num-is_invariant             117
 :SPACER-num-lemma-jumped             2
 :SPACER-num-lemmas                   75
 :SPACER-num-pobs                     27
 :SPACER-num-propagations             55
 :SPACER-num-queries                  47
 :SPACER-subsume-pob                  14
 :SPACER-subsume-success              30
 :added-eqs                           4302
 :arith-assert-diseq                  410
 :arith-assert-lower                  6602
 :arith-assert-upper                  6408
 :arith-bound-prop                    156
 :arith-conflicts                     48
 :arith-eq-adapter                    330
 :arith-fixed-eqs                     510
 :arith-num-rows                      36
 :arith-offset-eqs                    446
 :arith-pivots                        312
 :arith-row-summations                854
 :arith-tableau-max-columns           88
 :arith-tableau-max-rows              36
 :conflicts                           724
 :decisions                           4050
 :del-clause                          766
 :final-checks                        174
 :iuc_solver.num_proxies              63
 :max-memory                          32.57
 :memory                              31.99
 :minimized-lits                      18
 :mk-bool-var                         3076
 :mk-clause                           1722
 :num-allocs                          64654189
 :num-checks                          696
 :pool_solver.checks                  348
 :pool_solver.checks.sat              87
 :propagations                        31982
 :rlimit-count                        200206
 :time                                0.27
 :time.iuc_solver.get_iuc             0.04
 :time.iuc_solver.get_iuc.hyp_reduce1 0.01
 :time.iuc_solver.get_iuc.hyp_reduce2 0.01
 :time.iuc_solver.get_iuc.learn_core  0.01
 :time.pool_solver.proof              0.01
 :time.pool_solver.smt.total          0.07
 :time.pool_solver.smt.total.sat      0.02
 :time.spacer.ctp                     0.00
 :time.spacer.init_rules              0.00
 :time.spacer.mbp                     0.01
 :time.spacer.solve                   0.25
 :time.spacer.solve.propagate         0.04
 :time.spacer.solve.reach             0.22
 :time.spacer.solve.reach.children    0.02
 :time.spacer.solve.reach.cluster     0.02
 :time.spacer.solve.reach.gen.global  0.06
 :time.spacer.solve.reach.gen.ind     0.01)
(:max-memory   32.57
 :memory       31.99
 :num-allocs   64654189
 :rlimit-count 200206
 :time         0.27
 :total-time   0.29)
